50
750
588	1
573	1
564	1
550	1
509	1
508	1
503	1
499	1
495	1
468	1
456	1
442	1
432	1
423	1
409	1
402	1
399	1
396	1
393	1
382	1
370	1
355	1
344	1
323	1
315	1
309	1
306	1
302	1
297	1
296	1
283	1
268	1
253	1
240	1
230	1
210	1
206	1
195	1
193	1
180	1
174	1
165	1
164	1
154	1
148	1
133	1
91	1
90	1
85	1
79	1
